benchmarks_vrp/CMT11/tsp_classic/CMT11_0.vrp
NAME: CMT11_0
TYPE: CVRP
COMMENT: 1042.11 - Cluster Nr.0
DIMENSION: 16
CAPACITY: 200
EDGE_WEIGHT_TYPE: EUC_2D
NODE_COORD_TYPE: TWOD_COORDS
NODE_COORD_SECTION: 
7 34 9
16 35 7
15 47 6
1 25 3
4 31 7
12 32 5
3 32 9
14 39 3
10 10 45
13 35 5
6 46 9
9 36 3
8 40 5
11 31 5
2 34 6
5 25 1
DEPOT_SECTION: 
10
-1
DEMAND_SECTION: 
12 6
16 5
10 0
15 17
9 18
3 5
11 13
5 25
1 7
2 15
6 19
8 13
13 15
14 12
4 14
7 11
EOF
