benchmarks_vrp/CMT11/tsp_classic/CMT11_0.tour
NAME: CMT11_0 solution
TYPE: TOUR
TOUR_SECTION:
10 1 5 11 12 4 3 7 16 2 13 9 14 8 15 6 -1
-1
EOF